c Standarized MaxSat Instance
c{
c "sha1sum": "f2865e51e1b90ff2f23373ec054e7b0548f4e340",
c "nvars": 115,
c "ncls": 1264,
c "total_lits": 3332,
c "nhards": 1149,
c "nhard_nlits": 3217,
c "nhard_len_stats":
c    { "min": 2,
c      "max": 13,
c      "ave": 2.7998,
c      "stddev": 2.4345 },
c "nsofts": 115,
c "nsoft_nlits": 115,
c "nsoft_len_stats":
c    { "min": 1,
c      "max": 1,
c      "ave": 1.0000,
c      "stddev": 0.0000 },
c "nsoft_wts": 1,
c "soft_wt_stats":
c    { "min": 1,
c      "max": 1,
c      "ave": 1.0000,
c      "stddev": 0.0000 }
c}
c------------------------------------------------------------
c Triangle-Driven Community Detection in Large Graphs
c jabbour@cril.fr, badran.raddaoui@gmail.com, sais@cril.fr
c
h -1 -34 0
h -1 -10 0
h -1 -17 0
h -1 -24 0
h -1 -42 0
h -1 -94 0
h -1 -105 0
h -1 -5 0
h -1 -91 0
h -1 -2 0
h 1 34 10 17 24 42 94 105 5 91 2 0
h -2 -34 0
h -2 -38 0
h -2 -46 0
h -2 -90 0
h -2 -104 0
h -2 -106 0
h -2 -110 0
h -2 -1 0
h -2 -26 0
h 2 34 38 46 90 104 106 110 1 26 0
h -5 -10 0
h -5 -17 0
h -5 -24 0
h -5 -42 0
h -5 -94 0
h -5 -105 0
h -5 -1 0
h -5 -109 0
h -5 -70 0
h -5 -29 0
h 5 10 17 24 42 94 105 1 109 70 29 0
h -10 -5 0
h -10 -17 0
h -10 -24 0
h -10 -42 0
h -10 -94 0
h -10 -105 0
h -10 -1 0
h -10 -109 0
h -10 -23 0
h -10 -9 0
h 10 5 17 24 42 94 105 1 109 23 9 0
h -17 -5 0
h -17 -10 0
h -17 -24 0
h -17 -42 0
h -17 -94 0
h -17 -105 0
h -17 -1 0
h -17 -68 0
h 17 5 10 24 42 94 105 1 68 0
h -24 -5 0
h -24 -10 0
h -24 -17 0
h -24 -42 0
h -24 -91 0
h -24 -94 0
h -24 -105 0
h -24 -1 0
h -24 -23 0
h -24 -79 0
h -24 -112 0
h 24 5 10 17 42 91 94 105 1 23 79 112 0
h -34 -2 0
h -34 -1 0
h -34 -26 0
h -34 -38 0
h -34 -46 0
h -34 -90 0
h -34 -104 0
h -34 -106 0
h -34 -110 0
h 34 2 1 26 38 46 90 104 106 110 0
h -42 -5 0
h -42 -10 0
h -42 -17 0
h -42 -24 0
h -42 -94 0
h -42 -105 0
h -42 -1 0
h -42 -9 0
h -42 -68 0
h 42 5 10 17 24 94 105 1 9 68 0
h -91 -24 0
h -91 -12 0
h -91 -6 0
h -91 -25 0
h -91 -29 0
h -91 -51 0
h -91 -70 0
h -91 -1 0
h 91 24 12 6 25 29 51 70 1 0
h -94 -5 0
h -94 -10 0
h -94 -17 0
h -94 -24 0
h -94 -42 0
h -94 -105 0
h -94 -1 0
h -94 -83 0
h -94 -92 0
h -94 -81 0
h 94 5 10 17 24 42 105 1 83 92 81 0
h -105 -5 0
h -105 -10 0
h -105 -17 0
h -105 -24 0
h -105 -42 0
h -105 -94 0
h -105 -1 0
h -105 -68 0
h -105 -115 0
h 105 5 10 17 24 42 94 1 68 115 0
h -26 -34 0
h -26 -38 0
h -26 -46 0
h -26 -90 0
h -26 -104 0
h -26 -106 0
h -26 -110 0
h -26 -2 0
h 26 34 38 46 90 104 106 110 2 0
h -38 -26 0
h -38 -34 0
h -38 -46 0
h -38 -90 0
h -38 -104 0
h -38 -106 0
h -38 -110 0
h -38 -2 0
h -38 -81 0
h 38 26 34 46 90 104 106 110 2 81 0
h -46 -26 0
h -46 -34 0
h -46 -38 0
h -46 -90 0
h -46 -104 0
h -46 -106 0
h -46 -110 0
h -46 -2 0
h -46 -63 0
h 46 26 34 38 90 104 106 110 2 63 0
h -90 -26 0
h -90 -34 0
h -90 -38 0
h -90 -46 0
h -90 -104 0
h -90 -106 0
h -90 -110 0
h -90 -2 0
h 90 26 34 38 46 104 106 110 2 0
h -104 -26 0
h -104 -34 0
h -104 -38 0
h -104 -46 0
h -104 -90 0
h -104 -106 0
h -104 -110 0
h -104 -2 0
h 104 26 34 38 46 90 106 110 2 0
h -106 -26 0
h -106 -34 0
h -106 -38 0
h -106 -46 0
h -106 -90 0
h -106 -104 0
h -106 -110 0
h -106 -2 0
h -106 -81 0
h -106 -63 0
h 106 26 34 38 46 90 104 110 2 81 63 0
h -110 -26 0
h -110 -34 0
h -110 -38 0
h -110 -46 0
h -110 -90 0
h -110 -104 0
h -110 -106 0
h -110 -2 0
h -110 -80 0
h -110 -31 0
h 110 26 34 38 46 90 104 106 2 80 31 0
h -3 -73 0
h -3 -75 0
h -3 -48 0
h -3 -61 0
h -3 -65 0
h -3 -101 0
h -3 -107 0
h -3 -16 0
h -3 -14 0
h -3 -15 0
h -3 -7 0
h -3 -4 0
h 3 73 75 48 61 65 101 107 16 14 15 7 4 0
h -4 -73 0
h -4 -75 0
h -4 -12 0
h -4 -53 0
h -4 -82 0
h -4 -85 0
h -4 -6 0
h -4 -103 0
h -4 -41 0
h -4 -3 0
h 4 73 75 12 53 82 85 6 103 41 3 0
h -7 -48 0
h -7 -61 0
h -7 -65 0
h -7 -101 0
h -7 -107 0
h -7 -40 0
h -7 -33 0
h -7 -3 0
h 7 48 61 65 101 107 40 33 3 0
h -14 -16 0
h -14 -61 0
h -14 -65 0
h -14 -101 0
h -14 -107 0
h -14 -3 0
h -14 -33 0
h -14 -40 0
h 14 16 61 65 101 107 3 33 40 0
h -15 -16 0
h -15 -27 0
h -15 -39 0
h -15 -44 0
h -15 -86 0
h -15 -3 0
h -15 -13 0
h -15 -55 0
h -15 -72 0
h -15 -100 0
h 15 16 27 39 44 86 3 13 55 72 100 0
h -16 -14 0
h -16 -15 0
h -16 -48 0
h -16 -61 0
h -16 -101 0
h -16 -107 0
h -16 -3 0
h -16 -33 0
h -16 -40 0
h -16 -93 0
h 16 14 15 48 61 101 107 3 33 40 93 0
h -48 -7 0
h -48 -16 0
h -48 -61 0
h -48 -65 0
h -48 -101 0
h -48 -3 0
h -48 -33 0
h -48 -40 0
h 48 7 16 61 65 101 3 33 40 0
h -61 -7 0
h -61 -14 0
h -61 -16 0
h -61 -48 0
h -61 -65 0
h -61 -107 0
h -61 -3 0
h -61 -40 0
h 61 7 14 16 48 65 107 3 40 0
h -65 -7 0
h -65 -14 0
h -65 -48 0
h -65 -61 0
h -65 -101 0
h -65 -107 0
h -65 -3 0
h -65 -33 0
h 65 7 14 48 61 101 107 3 33 0
h -73 -4 0
h -73 -75 0
h -73 -3 0
h -73 -41 0
h -73 -53 0
h -73 -82 0
h -73 -103 0
h -73 -108 0
h -73 -11 0
h 73 4 75 3 41 53 82 103 108 11 0
h -75 -4 0
h -75 -73 0
h -75 -3 0
h -75 -6 0
h -75 -41 0
h -75 -53 0
h -75 -85 0
h -75 -103 0
h -75 -11 0
h 75 4 73 3 6 41 53 85 103 11 0
h -101 -7 0
h -101 -14 0
h -101 -16 0
h -101 -48 0
h -101 -65 0
h -101 -3 0
h -101 -33 0
h -101 -40 0
h -101 -83 0
h 101 7 14 16 48 65 3 33 40 83 0
h -107 -7 0
h -107 -14 0
h -107 -16 0
h -107 -61 0
h -107 -65 0
h -107 -3 0
h -107 -33 0
h -107 -40 0
h -107 -93 0
h 107 7 14 16 61 65 3 33 40 93 0
h -6 -12 0
h -6 -53 0
h -6 -75 0
h -6 -82 0
h -6 -85 0
h -6 -99 0
h -6 -108 0
h -6 -4 0
h -6 -11 0
h -6 -91 0
h -6 -98 0
h 6 12 53 75 82 85 99 108 4 11 91 98 0
h -12 -6 0
h -12 -4 0
h -12 -11 0
h -12 -91 0
h -12 -98 0
h -12 -29 0
h -12 -51 0
h -12 -70 0
h -12 -25 0
h 12 6 4 11 91 98 29 51 70 25 0
h -41 -53 0
h -41 -73 0
h -41 -75 0
h -41 -82 0
h -41 -103 0
h -41 -4 0
h -41 -99 0
h -41 -108 0
h 41 53 73 75 82 103 4 99 108 0
h -53 -6 0
h -53 -41 0
h -53 -73 0
h -53 -75 0
h -53 -85 0
h -53 -103 0
h -53 -4 0
h -53 -99 0
h 53 6 41 73 75 85 103 4 99 0
h -82 -6 0
h -82 -41 0
h -82 -73 0
h -82 -85 0
h -82 -4 0
h -82 -11 0
h -82 -99 0
h -82 -108 0
h -82 -84 0
h 82 6 41 73 85 4 11 99 108 84 0
h -85 -6 0
h -85 -53 0
h -85 -75 0
h -85 -82 0
h -85 -4 0
h -85 -11 0
h -85 -99 0
h -85 -108 0
h -85 -84 0
h -85 -50 0
h 85 6 53 75 82 4 11 99 108 84 50 0
h -103 -41 0
h -103 -53 0
h -103 -73 0
h -103 -75 0
h -103 -99 0
h -103 -108 0
h -103 -4 0
h -103 -11 0
h 103 41 53 73 75 99 108 4 11 0
h -29 -70 0
h -29 -25 0
h -29 -51 0
h -29 -91 0
h -29 -12 0
h -29 -79 0
h -29 -5 0
h 29 70 25 51 91 12 79 5 0
h -70 -29 0
h -70 -25 0
h -70 -51 0
h -70 -91 0
h -70 -12 0
h -70 -5 0
h -70 -96 0
h -70 -89 0
h -70 -84 0
h -70 -71 0
h 70 29 25 51 91 12 5 96 89 84 71 0
h -109 -10 0
h -109 -22 0
h -109 -23 0
h -109 -69 0
h -109 -78 0
h -109 -79 0
h -109 -112 0
h -109 -5 0
h -109 -8 0
h -109 -52 0
h 109 10 22 23 69 78 79 112 5 8 52 0
h -11 -12 0
h -11 -75 0
h -11 -82 0
h -11 -85 0
h -11 -99 0
h -11 -108 0
h -11 -6 0
h -11 -103 0
h -11 -73 0
h 11 12 75 82 85 99 108 6 103 73 0
h -98 -12 0
h -98 -99 0
h -98 -6 0
h -98 -60 0
h -98 -64 0
h -98 -59 0
h -98 -113 0
h 98 12 99 6 60 64 59 113 0
h -99 -11 0
h -99 -53 0
h -99 -82 0
h -99 -85 0
h -99 -98 0
h -99 -108 0
h -99 -6 0
h -99 -103 0
h -99 -41 0
h 99 11 53 82 85 98 108 6 103 41 0
h -108 -11 0
h -108 -82 0
h -108 -85 0
h -108 -99 0
h -108 -6 0
h -108 -73 0
h -108 -103 0
h -108 -41 0
h 108 11 82 85 99 6 73 103 41 0
h -33 -40 0
h -33 -48 0
h -33 -65 0
h -33 -101 0
h -33 -107 0
h -33 -16 0
h -33 -14 0
h -33 -7 0
h 33 40 48 65 101 107 16 14 7 0
h -40 -33 0
h -40 -48 0
h -40 -61 0
h -40 -101 0
h -40 -107 0
h -40 -16 0
h -40 -14 0
h -40 -7 0
h -40 -55 0
h -40 -39 0
h -40 -83 0
h 40 33 48 61 101 107 16 14 7 55 39 83 0
h -8 -22 0
h -8 -23 0
h -8 -69 0
h -8 -78 0
h -8 -79 0
h -8 -112 0
h -8 -9 0
h -8 -109 0
h -8 -74 0
h -8 -83 0
h 8 22 23 69 78 79 112 9 109 74 83 0
h -9 -22 0
h -9 -23 0
h -9 -69 0
h -9 -78 0
h -9 -79 0
h -9 -112 0
h -9 -42 0
h -9 -8 0
h -9 -52 0
h -9 -10 0
h 9 22 23 69 78 79 112 42 8 52 10 0
h -22 -9 0
h -22 -23 0
h -22 -69 0
h -22 -78 0
h -22 -109 0
h -22 -112 0
h -22 -8 0
h -22 -52 0
h -22 -47 0
h 22 9 23 69 78 109 112 8 52 47 0
h -23 -9 0
h -23 -22 0
h -23 -69 0
h -23 -78 0
h -23 -79 0
h -23 -109 0
h -23 -8 0
h -23 -10 0
h -23 -52 0
h -23 -24 0
h 23 9 22 69 78 79 109 8 10 52 24 0
h -69 -9 0
h -69 -22 0
h -69 -23 0
h -69 -79 0
h -69 -109 0
h -69 -112 0
h -69 -8 0
h -69 -52 0
h -69 -51 0
h 69 9 22 23 79 109 112 8 52 51 0
h -74 -78 0
h -74 -50 0
h -74 -54 0
h -74 -68 0
h -74 -84 0
h -74 -89 0
h -74 -111 0
h -74 -115 0
h -74 -47 0
h -74 -8 0
h 74 78 50 54 68 84 89 111 115 47 8 0
h -78 -9 0
h -78 -22 0
h -78 -23 0
h -78 -74 0
h -78 -79 0
h -78 -83 0
h -78 -109 0
h -78 -112 0
h -78 -8 0
h -78 -52 0
h 78 9 22 23 74 79 83 109 112 8 52 0
h -79 -9 0
h -79 -23 0
h -79 -69 0
h -79 -78 0
h -79 -109 0
h -79 -112 0
h -79 -8 0
h -79 -52 0
h -79 -24 0
h -79 -51 0
h -79 -29 0
h 79 9 23 69 78 109 112 8 52 24 51 29 0
h -83 -78 0
h -83 -31 0
h -83 -81 0
h -83 -95 0
h -83 -30 0
h -83 -101 0
h -83 -8 0
h -83 -94 0
h -83 -40 0
h 83 78 31 81 95 30 101 8 94 40 0
h -112 -9 0
h -112 -22 0
h -112 -69 0
h -112 -78 0
h -112 -79 0
h -112 -109 0
h -112 -8 0
h -112 -52 0
h -112 -47 0
h -112 -24 0
h 112 9 22 69 78 79 109 8 52 47 24 0
h -52 -22 0
h -52 -23 0
h -52 -69 0
h -52 -78 0
h -52 -79 0
h -52 -112 0
h -52 -9 0
h -52 -109 0
h -52 -51 0
h 52 22 23 69 78 79 112 9 109 51 0
h -25 -29 0
h -25 -51 0
h -25 -70 0
h -25 -91 0
h -25 -12 0
h 25 29 51 70 91 12 0
h -51 -25 0
h -51 -29 0
h -51 -70 0
h -51 -91 0
h -51 -12 0
h -51 -79 0
h -51 -69 0
h -51 -52 0
h 51 25 29 70 91 12 79 69 52 0
h -13 -27 0
h -13 -39 0
h -13 -44 0
h -13 -86 0
h -13 -35 0
h -13 -37 0
h -13 -15 0
h -13 -19 0
h 13 27 39 44 86 35 37 15 19 0
h -19 -35 0
h -19 -37 0
h -19 -39 0
h -19 -55 0
h -19 -62 0
h -19 -72 0
h -19 -100 0
h -19 -13 0
h -19 -32 0
h -19 -43 0
h -19 -20 0
h 19 35 37 39 55 62 72 100 13 32 43 20 0
h -27 -15 0
h -27 -35 0
h -27 -39 0
h -27 -44 0
h -27 -86 0
h -27 -13 0
h -27 -43 0
h -27 -62 0
h 27 15 35 39 44 86 13 43 62 0
h -35 -19 0
h -35 -27 0
h -35 -13 0
h -35 -32 0
h -35 -43 0
h -35 -55 0
h -35 -62 0
h -35 -72 0
h -35 -100 0
h -35 -95 0
h -35 -36 0
h 35 19 27 13 32 43 55 62 72 100 95 36 0
h -37 -19 0
h -37 -44 0
h -37 -13 0
h -37 -20 0
h -37 -60 0
h -37 -59 0
h 37 19 44 13 20 60 59 0
h -39 -15 0
h -39 -19 0
h -39 -27 0
h -39 -44 0
h -39 -86 0
h -39 -13 0
h -39 -55 0
h -39 -72 0
h -39 -40 0
h 39 15 19 27 44 86 13 55 72 40 0
h -44 -15 0
h -44 -27 0
h -44 -37 0
h -44 -39 0
h -44 -86 0
h -44 -13 0
h -44 -43 0
h -44 -62 0
h -44 -80 0
h -44 -32 0
h 44 15 27 37 39 86 13 43 62 80 32 0
h -86 -15 0
h -86 -27 0
h -86 -39 0
h -86 -44 0
h -86 -13 0
h -86 -100 0
h -86 -32 0
h 86 15 27 39 44 13 100 32 0
h -55 -39 0
h -55 -72 0
h -55 -100 0
h -55 -32 0
h -55 -35 0
h -55 -62 0
h -55 -19 0
h -55 -56 0
h -55 -15 0
h -55 -40 0
h 55 39 72 100 32 35 62 19 56 15 40 0
h -72 -39 0
h -72 -55 0
h -72 -100 0
h -72 -32 0
h -72 -35 0
h -72 -62 0
h -72 -19 0
h -72 -15 0
h 72 39 55 100 32 35 62 19 15 0
h -100 -55 0
h -100 -72 0
h -100 -86 0
h -100 -32 0
h -100 -35 0
h -100 -62 0
h -100 -19 0
h -100 -15 0
h 100 55 72 86 32 35 62 19 15 0
h -93 -107 0
h -93 -58 0
h -93 -67 0
h -93 -76 0
h -93 -87 0
h -93 -92 0
h -93 -49 0
h -93 -113 0
h -93 -16 0
h 93 107 58 67 76 87 92 49 113 16 0
h -68 -42 0
h -68 -105 0
h -68 -17 0
h -68 -50 0
h -68 -54 0
h -68 -74 0
h -68 -84 0
h -68 -89 0
h -68 -111 0
h -68 -115 0
h -68 -47 0
h 68 42 105 17 50 54 74 84 89 111 115 47 0
h -18 -63 0
h -18 -66 0
h -18 -88 0
h -18 -97 0
h -18 -114 0
h -18 -96 0
h -18 -21 0
h -18 -28 0
h 18 63 66 88 97 114 96 21 28 0
h -21 -63 0
h -21 -66 0
h -21 -88 0
h -21 -97 0
h -21 -114 0
h -21 -18 0
h -21 -71 0
h -21 -77 0
h -21 -76 0
h 21 63 66 88 97 114 18 71 77 76 0
h -28 -63 0
h -28 -66 0
h -28 -96 0
h -28 -97 0
h -28 -71 0
h -28 -77 0
h -28 -18 0
h -28 -57 0
h -28 -64 0
h 28 63 66 96 97 71 77 18 57 64 0
h -63 -21 0
h -63 -28 0
h -63 -88 0
h -63 -96 0
h -63 -18 0
h -63 -71 0
h -63 -77 0
h -63 -57 0
h -63 -106 0
h -63 -46 0
h 63 21 28 88 96 18 71 77 57 106 46 0
h -66 -21 0
h -66 -28 0
h -66 -88 0
h -66 -97 0
h -66 -114 0
h -66 -18 0
h -66 -71 0
h -66 -57 0
h -66 -64 0
h 66 21 28 88 97 114 18 71 57 64 0
h -88 -21 0
h -88 -63 0
h -88 -66 0
h -88 -96 0
h -88 -97 0
h -88 -114 0
h -88 -18 0
h -88 -57 0
h 88 21 63 66 96 97 114 18 57 0
h -96 -28 0
h -96 -63 0
h -96 -88 0
h -96 -114 0
h -96 -18 0
h -96 -57 0
h -96 -71 0
h -96 -77 0
h -96 -70 0
h 96 28 63 88 114 18 57 71 77 70 0
h -97 -21 0
h -97 -28 0
h -97 -66 0
h -97 -88 0
h -97 -114 0
h -97 -18 0
h -97 -77 0
h -97 -57 0
h 97 21 28 66 88 114 18 77 57 0
h -114 -21 0
h -114 -66 0
h -114 -88 0
h -114 -96 0
h -114 -97 0
h -114 -18 0
h -114 -71 0
h -114 -77 0
h -114 -60 0
h 114 21 66 88 96 97 18 71 77 60 0
h -20 -37 0
h -20 -31 0
h -20 -36 0
h -20 -56 0
h -20 -80 0
h -20 -95 0
h -20 -102 0
h -20 -30 0
h -20 -45 0
h -20 -19 0
h 20 37 31 36 56 80 95 102 30 45 19 0
h -32 -35 0
h -32 -55 0
h -32 -62 0
h -32 -72 0
h -32 -100 0
h -32 -19 0
h -32 -80 0
h -32 -86 0
h -32 -56 0
h -32 -44 0
h 32 35 55 62 72 100 19 80 86 56 44 0
h -43 -35 0
h -43 -44 0
h -43 -19 0
h -43 -27 0
h 43 35 44 19 27 0
h -62 -32 0
h -62 -35 0
h -62 -55 0
h -62 -72 0
h -62 -100 0
h -62 -44 0
h -62 -19 0
h -62 -27 0
h 62 32 35 55 72 100 44 19 27 0
h -30 -31 0
h -30 -36 0
h -30 -56 0
h -30 -80 0
h -30 -95 0
h -30 -102 0
h -30 -20 0
h -30 -83 0
h -30 -81 0
h -30 -92 0
h 30 31 36 56 80 95 102 20 83 81 92 0
h -31 -30 0
h -31 -36 0
h -31 -45 0
h -31 -56 0
h -31 -80 0
h -31 -95 0
h -31 -102 0
h -31 -20 0
h -31 -83 0
h -31 -110 0
h 31 30 36 45 56 80 95 102 20 83 110 0
h -36 -30 0
h -36 -31 0
h -36 -45 0
h -36 -56 0
h -36 -80 0
h -36 -95 0
h -36 -102 0
h -36 -20 0
h -36 -35 0
h 36 30 31 45 56 80 95 102 20 35 0
h -45 -31 0
h -45 -36 0
h -45 -20 0
h -45 -58 0
h -45 -67 0
h -45 -76 0
h -45 -87 0
h -45 -92 0
h -45 -49 0
h -45 -113 0
h 45 31 36 20 58 67 76 87 92 49 113 0
h -56 -30 0
h -56 -31 0
h -56 -36 0
h -56 -80 0
h -56 -95 0
h -56 -102 0
h -56 -20 0
h -56 -55 0
h -56 -32 0
h 56 30 31 36 80 95 102 20 55 32 0
h -80 -30 0
h -80 -31 0
h -80 -36 0
h -80 -56 0
h -80 -95 0
h -80 -102 0
h -80 -20 0
h -80 -81 0
h -80 -110 0
h -80 -44 0
h -80 -32 0
h 80 30 31 36 56 95 102 20 81 110 44 32 0
h -95 -30 0
h -95 -31 0
h -95 -36 0
h -95 -56 0
h -95 -80 0
h -95 -102 0
h -95 -20 0
h -95 -81 0
h -95 -83 0
h -95 -35 0
h 95 30 31 36 56 80 102 20 81 83 35 0
h -102 -30 0
h -102 -31 0
h -102 -36 0
h -102 -56 0
h -102 -80 0
h -102 -95 0
h -102 -20 0
h 102 30 31 36 56 80 95 20 0
h -71 -63 0
h -71 -66 0
h -71 -77 0
h -71 -114 0
h -71 -57 0
h -71 -96 0
h -71 -28 0
h -71 -21 0
h -71 -70 0
h 71 63 66 77 114 57 96 28 21 70 0
h -76 -77 0
h -76 -49 0
h -76 -58 0
h -76 -67 0
h -76 -87 0
h -76 -113 0
h -76 -45 0
h -76 -93 0
h -76 -21 0
h 76 77 49 58 67 87 113 45 93 21 0
h -77 -63 0
h -77 -71 0
h -77 -76 0
h -77 -97 0
h -77 -114 0
h -77 -57 0
h -77 -96 0
h -77 -28 0
h -77 -67 0
h -77 -21 0
h -77 -60 0
h 77 63 71 76 97 114 57 96 28 67 21 60 0
h -47 -112 0
h -47 -54 0
h -47 -68 0
h -47 -74 0
h -47 -84 0
h -47 -89 0
h -47 -111 0
h -47 -115 0
h -47 -50 0
h -47 -22 0
h 47 112 54 68 74 84 89 111 115 50 22 0
h -57 -63 0
h -57 -66 0
h -57 -71 0
h -57 -77 0
h -57 -96 0
h -57 -97 0
h -57 -28 0
h -57 -88 0
h 57 63 66 71 77 96 97 28 88 0
h -64 -66 0
h -64 -60 0
h -64 -98 0
h -64 -59 0
h -64 -28 0
h -64 -113 0
h 64 66 60 98 59 28 113 0
h -81 -80 0
h -81 -83 0
h -81 -92 0
h -81 -95 0
h -81 -106 0
h -81 -30 0
h -81 -94 0
h -81 -87 0
h -81 -38 0
h 81 80 83 92 95 106 30 94 87 38 0
h -92 -81 0
h -92 -49 0
h -92 -58 0
h -92 -67 0
h -92 -87 0
h -92 -113 0
h -92 -45 0
h -92 -93 0
h -92 -30 0
h -92 -94 0
h 92 81 49 58 67 87 113 45 93 30 94 0
h -59 -60 0
h -59 -37 0
h -59 -64 0
h -59 -98 0
h -59 -115 0
h -59 -89 0
h 59 60 37 64 98 115 89 0
h -60 -59 0
h -60 -37 0
h -60 -64 0
h -60 -98 0
h -60 -77 0
h -60 -67 0
h -60 -114 0
h 60 59 37 64 98 77 67 114 0
h -49 -58 0
h -49 -67 0
h -49 -76 0
h -49 -87 0
h -49 -92 0
h -49 -54 0
h -49 -50 0
h -49 -45 0
h -49 -93 0
h 49 58 67 76 87 92 54 50 45 93 0
h -58 -49 0
h -58 -76 0
h -58 -87 0
h -58 -92 0
h -58 -113 0
h -58 -45 0
h -58 -93 0
h 58 49 76 87 92 113 45 93 0
h -67 -49 0
h -67 -76 0
h -67 -87 0
h -67 -92 0
h -67 -113 0
h -67 -45 0
h -67 -93 0
h -67 -77 0
h -67 -60 0
h 67 49 76 87 92 113 45 93 77 60 0
h -87 -49 0
h -87 -58 0
h -87 -67 0
h -87 -76 0
h -87 -92 0
h -87 -45 0
h -87 -54 0
h -87 -93 0
h -87 -81 0
h 87 49 58 67 76 92 45 54 93 81 0
h -113 -58 0
h -113 -67 0
h -113 -76 0
h -113 -92 0
h -113 -45 0
h -113 -93 0
h -113 -98 0
h -113 -64 0
h 113 58 67 76 92 45 93 98 64 0
h -50 -54 0
h -50 -68 0
h -50 -74 0
h -50 -84 0
h -50 -89 0
h -50 -111 0
h -50 -115 0
h -50 -47 0
h -50 -49 0
h -50 -85 0
h 50 54 68 74 84 89 111 115 47 49 85 0
h -54 -50 0
h -54 -68 0
h -54 -74 0
h -54 -84 0
h -54 -89 0
h -54 -111 0
h -54 -115 0
h -54 -87 0
h -54 -47 0
h -54 -49 0
h 54 50 68 74 84 89 111 115 87 47 49 0
h -84 -50 0
h -84 -54 0
h -84 -68 0
h -84 -74 0
h -84 -89 0
h -84 -111 0
h -84 -115 0
h -84 -47 0
h -84 -85 0
h -84 -82 0
h -84 -70 0
h 84 50 54 68 74 89 111 115 47 85 82 70 0
h -89 -50 0
h -89 -54 0
h -89 -68 0
h -89 -74 0
h -89 -84 0
h -89 -111 0
h -89 -115 0
h -89 -47 0
h -89 -70 0
h -89 -59 0
h 89 50 54 68 74 84 111 115 47 70 59 0
h -111 -50 0
h -111 -54 0
h -111 -68 0
h -111 -74 0
h -111 -84 0
h -111 -89 0
h -111 -115 0
h -111 -47 0
h 111 50 54 68 74 84 89 115 47 0
h -115 -50 0
h -115 -54 0
h -115 -68 0
h -115 -74 0
h -115 -84 0
h -115 -89 0
h -115 -111 0
h -115 -47 0
h -115 -105 0
h -115 -59 0
h 115 50 54 68 74 84 89 111 47 105 59 0
1 -1 0
1 -2 0
1 -5 0
1 -10 0
1 -17 0
1 -24 0
1 -34 0
1 -42 0
1 -91 0
1 -94 0
1 -105 0
1 -26 0
1 -38 0
1 -46 0
1 -90 0
1 -104 0
1 -106 0
1 -110 0
1 -3 0
1 -4 0
1 -7 0
1 -14 0
1 -15 0
1 -16 0
1 -48 0
1 -61 0
1 -65 0
1 -73 0
1 -75 0
1 -101 0
1 -107 0
1 -6 0
1 -12 0
1 -41 0
1 -53 0
1 -82 0
1 -85 0
1 -103 0
1 -29 0
1 -70 0
1 -109 0
1 -11 0
1 -98 0
1 -99 0
1 -108 0
1 -33 0
1 -40 0
1 -8 0
1 -9 0
1 -22 0
1 -23 0
1 -69 0
1 -74 0
1 -78 0
1 -79 0
1 -83 0
1 -112 0
1 -52 0
1 -25 0
1 -51 0
1 -13 0
1 -19 0
1 -27 0
1 -35 0
1 -37 0
1 -39 0
1 -44 0
1 -86 0
1 -55 0
1 -72 0
1 -100 0
1 -93 0
1 -68 0
1 -18 0
1 -21 0
1 -28 0
1 -63 0
1 -66 0
1 -88 0
1 -96 0
1 -97 0
1 -114 0
1 -20 0
1 -32 0
1 -43 0
1 -62 0
1 -30 0
1 -31 0
1 -36 0
1 -45 0
1 -56 0
1 -80 0
1 -95 0
1 -102 0
1 -71 0
1 -76 0
1 -77 0
1 -47 0
1 -57 0
1 -64 0
1 -81 0
1 -92 0
1 -59 0
1 -60 0
1 -49 0
1 -58 0
1 -67 0
1 -87 0
1 -113 0
1 -50 0
1 -54 0
1 -84 0
1 -89 0
1 -111 0
1 -115 0
